========================================================== 
File name: C:\DEGR\assets\definitions\MSRCPSP_Gen\200_5_64_5_A.def
Creation date: Wed May 03 10:45:18 CEST 2023
Website: http://imopse.ii.pwr.edu.pl/ 
Reference: 
Myszkowski P. B., Skowronski M. E., Olech L., Oslizlo K., 
Hybrid Ant Colony Optimization in solving Multi-Skill Resource-Constrained Project Scheduling Problem, 
Soft Computing, DOI: DOI 10.1007/s00500-014-1455-x 
========================================================== 
General characteristics: 
Tasks: 200
Resources: 5
Precedence relations: 64
Number of skill types: 5
========================================================== 
ResourceID 	 Salary 	 Skills 
1	 	 	45.9	 	 Q4: 1 	 
2	 	 	34.0	 	 Q1: 2 	  Q0: 3 	  Q4: 3 	 
3	 	 	11.1	 	 Q4: 2 	  Q3: 1 	  Q1: 1 	 
4	 	 	83.9	 	 Q2: 0 	  Q0: 0 	 
5	 	 	54.7	 	 Q3: 2 	  Q2: 1 	 
========================================================== 
TaskID 	 Duration 	 Skill 	 Predecessor IDs 
1	29	Q2:	1
2	19	Q3:	1
3	23	Q0:	0
4	11	Q1:	1
5	27	Q1:	2
6	26	Q2:	0
7	28	Q0:	3
8	15	Q2:	1
9	26	Q0:	0
10	22	Q2:	1
11	22	Q4:	1
12	34	Q0:	0
13	37	Q1:	2
14	16	Q4:	3
15	27	Q4:	3
16	21	Q1:	1
17	29	Q2:	0
18	33	Q4:	1
19	34	Q2:	1
20	13	Q3:	2
21	33	Q2:	0
22	10	Q4:	1
23	39	Q0:	3
24	19	Q1:	1
25	15	Q3:	2
26	39	Q1:	2
27	22	Q0:	0
28	26	Q1:	1
29	14	Q3:	2
30	12	Q0:	0
31	19	Q1:	1
32	11	Q2:	1	7
33	22	Q4:	3
34	32	Q4:	3	6
35	12	Q2:	0
36	20	Q4:	3
37	37	Q0:	0
38	13	Q2:	0
39	23	Q1:	1
40	21	Q1:	2
41	17	Q4:	3
42	37	Q3:	1
43	11	Q0:	0
44	21	Q4:	2
45	24	Q0:	3
46	8	Q0:	3
47	16	Q3:	2
48	30	Q0:	3
49	13	Q2:	0
50	12	Q0:	0
51	21	Q3:	1
52	21	Q4:	3
53	33	Q4:	2
54	31	Q1:	2
55	28	Q4:	3
56	24	Q3:	1
57	32	Q2:	1	24
58	25	Q3:	2
59	13	Q2:	0	10
60	39	Q4:	1
61	21	Q1:	1
62	18	Q0:	3	30
63	34	Q2:	1
64	34	Q4:	2
65	37	Q2:	1
66	21	Q2:	1
67	22	Q2:	0
68	33	Q0:	0
69	22	Q0:	0
70	40	Q4:	2
71	32	Q1:	2
72	39	Q4:	2
73	29	Q1:	1
74	14	Q1:	1
75	29	Q2:	1	57	33
76	24	Q4:	2	34
77	18	Q2:	1
78	25	Q3:	1
79	29	Q4:	1
80	10	Q2:	0
81	27	Q2:	1
82	11	Q4:	2
83	21	Q3:	2	23
84	13	Q4:	3
85	10	Q0:	0	13
86	31	Q3:	2
87	28	Q4:	2
88	32	Q3:	2
89	14	Q2:	0
90	10	Q3:	2
91	22	Q1:	2
92	14	Q2:	1
93	17	Q1:	2	78
94	31	Q0:	0
95	31	Q1:	1
96	9	Q2:	1
97	33	Q3:	2
98	17	Q0:	3
99	29	Q4:	2	10
100	29	Q0:	0
101	39	Q1:	1
102	17	Q3:	1	84	75
103	25	Q1:	1
104	35	Q3:	1
105	21	Q4:	3	68
106	39	Q4:	1	55
107	21	Q3:	1	106
108	27	Q4:	3
109	35	Q3:	2	21	13
110	15	Q4:	1
111	29	Q4:	3	52
112	37	Q2:	1	10
113	29	Q0:	3
114	19	Q1:	1
115	35	Q2:	0	114	54
116	18	Q0:	3
117	23	Q4:	1
118	28	Q3:	1	61	55
119	14	Q2:	0
120	12	Q0:	0
121	9	Q4:	1	119
122	39	Q3:	1	65	6
123	40	Q3:	2	63
124	40	Q4:	1
125	38	Q2:	1
126	31	Q2:	0	86
127	27	Q4:	1	104
128	16	Q0:	0
129	39	Q2:	0
130	20	Q4:	3
131	11	Q0:	0
132	38	Q2:	0
133	31	Q1:	1
134	23	Q2:	0	122	78
135	39	Q1:	1
136	39	Q0:	0
137	34	Q1:	2	48
138	29	Q2:	1
139	23	Q2:	1
140	28	Q4:	1	97	68	31
141	17	Q4:	3	71
142	13	Q4:	2
143	16	Q1:	1
144	24	Q2:	1
145	14	Q0:	0
146	10	Q1:	1
147	29	Q2:	1	58
148	10	Q2:	1
149	22	Q4:	3
150	29	Q3:	1
151	14	Q3:	2
152	10	Q4:	3
153	38	Q1:	2
154	13	Q4:	1
155	20	Q4:	1	7
156	11	Q0:	0
157	30	Q4:	2	40
158	9	Q3:	2
159	28	Q0:	3
160	13	Q1:	2
161	29	Q3:	1
162	14	Q4:	1	4
163	30	Q3:	1	130
164	10	Q1:	2
165	30	Q4:	3
166	25	Q3:	2	64
167	24	Q3:	2	129
168	26	Q1:	1
169	9	Q4:	1	117
170	17	Q2:	0	151	32	100
171	35	Q2:	0
172	24	Q0:	0
173	33	Q4:	1	101	90
174	34	Q4:	3
175	35	Q4:	3
176	10	Q1:	1
177	31	Q3:	2
178	24	Q4:	2	25
179	23	Q2:	0
180	35	Q3:	2
181	22	Q4:	2
182	40	Q3:	1	169	171	110
183	25	Q1:	1	53
184	33	Q3:	1	177
185	12	Q0:	3	76
186	39	Q1:	1	128
187	40	Q3:	1
188	33	Q1:	1
189	31	Q4:	1	60
190	22	Q1:	2
191	21	Q2:	0
192	22	Q4:	1
193	40	Q0:	3
194	22	Q4:	1	34
195	22	Q4:	3
196	13	Q4:	2	53
197	15	Q1:	2
198	25	Q0:	0	29
199	25	Q4:	2
200	29	Q4:	2	106
========================================================== 